model.ilp
\ Model Dynamic Economic Dispatch_copy
\ LP format - for model browsing. Use MPS format to capture full model detail.
Minimize
  + 1026 Constant
Subject To
 R17: - C1 - C4 - C7 - C10 >= -840
 DemandConst[1]: C1 + C4 + C7 + C10 >= 850
Bounds
 C1 free
 C4 free
 C7 free
 C10 free
 Constant = 1
End
